
Gurobi 10.0.3 (linux64, gurobi_cl) logging started Thu Nov  2 11:33:56 2023

Set parameter Username
Set parameter TimeLimit to value 3600
Set parameter LogFile to value "RCPSP_180.log"
Set parameter Threads to value 32
Academic license - for non-commercial use only - expires 2024-10-30
Using license file /home/jrivera6/gurobi-licenses/v1003/compute-0-38/gurobi.lic

Gurobi Optimizer version 10.0.3 build v10.0.3rc0 (linux64)
Copyright (c) 2023, Gurobi Optimization, LLC

Read MPS format model from file RCPSP_180.mps
Reading time = 0.02 seconds
RCPSP_180: 5339 rows, 2080 columns, 16093 nonzeros

CPU model: Intel(R) Xeon(R) Gold 6242 CPU @ 2.80GHz, instruction set [SSE2|AVX|AVX2|AVX512]
Thread count: 32 physical cores, 32 logical processors, using up to 32 threads

Optimize a model with 5339 rows, 2080 columns and 16093 nonzeros
Model fingerprint: 0xa06ba200
Variable types: 32 continuous, 2048 integer (2048 binary)
Coefficient statistics:
  Matrix range     [1e+00, 2e+02]
  Objective range  [1e+00, 1e+00]
  Bounds range     [1e+00, 1e+00]
  RHS range        [1e+00, 2e+02]
Presolve removed 2827 rows and 1064 columns
Presolve time: 0.18s
Presolved: 2512 rows, 1016 columns, 7728 nonzeros
Variable types: 31 continuous, 985 integer (985 binary)

Root relaxation: objective 4.500000e+01, 359 iterations, 0.00 seconds (0.00 work units)

    Nodes    |    Current Node    |     Objective Bounds      |     Work
 Expl Unexpl |  Obj  Depth IntInf | Incumbent    BestBd   Gap | It/Node Time

     0     0   45.00000    0    3          -   45.00000      -     -    0s
     0     0   47.00000    0    1          -   47.00000      -     -    0s
H    0     0                      53.0000000   47.00000  11.3%     -    0s
H    0     0                      50.0000000   47.00000  6.00%     -    0s
     0     0   47.00000    0    1   50.00000   47.00000  6.00%     -    0s
H    0     0                      49.0000000   47.00000  4.08%     -    0s
     0     0   47.00000    0    1   49.00000   47.00000  4.08%     -    0s

Explored 1 nodes (1137 simplex iterations) in 0.72 seconds (0.24 work units)
Thread count was 32 (of 32 available processors)

Solution count 3: 49 50 53 

Optimal solution found (tolerance 1.00e-04)
Best objective 4.900000000000e+01, best bound 4.900000000000e+01, gap 0.0000%

Wrote result file 'RCPSP_180.sol'

